projected/problems_b25_r0_d7_m100_s666/_DIMACS/b25_d7_r0_s666_076.cnf
p cnf 247 421 25
c p show 1 2 3 4 5 6 7 8 9 10 11 12 13 14 15 16 17 18 19 20 21 22 23 24 25
-26 19 0
-26 -13 0
-27 -10 22 0
-28 27 0
-28 26 0
-29 -5 0
-29 7 0
-30 25 0
-30 3 0
-31 30 29 0
-32 31 28 0
-33 -13 -6 0
-34 13 0
-34 -15 0
-35 34 0
-35 33 0
-36 22 -14 0
-37 2 0
-37 -22 0
-38 37 36 0
-39 38 35 0
-40 -22 0
-40 14 0
-41 -2 22 0
-42 41 0
-42 40 0
-43 13 0
-43 6 0
-44 -13 15 0
-45 44 43 0
-46 45 42 0
-47 46 0
-47 39 0
-48 47 32 0
-49 9 -6 0
-50 -23 0
-50 6 0
-51 50 49 0
-52 1 0
-52 -23 0
-53 -13 24 0
-54 53 0
-54 52 0
-55 54 0
-55 51 0
-56 22 -5 0
-57 21 0
-57 -17 0
-58 57 0
-58 56 0
-59 1 0
-59 -2 0
-60 -18 -15 0
-61 60 0
-61 59 0
-62 61 0
-62 58 0
-63 62 0
-63 55 0
-64 63 48 0
-65 10 0
-65 6 0
-66 -12 0
-66 5 0
-67 66 65 0
-68 -18 -7 0
-69 14 2 0
-70 69 0
-70 68 0
-71 -14 0
-71 -2 0
-72 18 0
-72 7 0
-73 72 0
-73 71 0
-74 73 70 0
-75 74 0
-75 67 0
-76 -9 0
-76 16 0
-77 -8 0
-77 11 0
-78 -11 0
-78 8 0
-79 78 77 0
-80 79 0
-80 76 0
-81 8 3 0
-82 -13 10 0
-83 82 0
-83 81 0
-84 83 80 0
-85 84 0
-85 75 0
-86 -25 -5 0
-87 9 19 0
-88 87 0
-88 86 0
-89 25 0
-89 -8 0
-90 8 10 0
-91 -10 -8 0
-92 91 0
-92 90 0
-93 92 89 0
-94 93 0
-94 88 0
-95 7 0
-95 1 0
-96 -1 0
-96 -7 0
-97 96 95 0
-98 11 16 0
-99 98 0
-99 97 0
-100 22 0
-100 25 0
-101 -13 0
-101 12 0
-102 101 0
-102 100 0
-103 102 99 0
-104 -22 -25 0
-105 13 -12 0
-106 105 104 0
-107 -7 -1 0
-108 1 7 0
-109 108 0
-109 107 0
-110 -11 0
-110 -16 0
-111 110 109 0
-112 111 106 0
-113 112 0
-113 103 0
-114 113 0
-114 94 0
-115 106 0
-115 111 0
-116 99 0
-116 102 0
-117 116 115 0
-118 25 0
-118 5 0
-119 -9 0
-119 -19 0
-120 119 118 0
-121 -25 8 0
-122 -8 0
-122 -10 0
-123 10 0
-123 8 0
-124 123 122 0
-125 124 0
-125 121 0
-126 125 120 0
-127 126 0
-127 117 0
-128 127 114 0
-129 128 0
-129 85 0
-130 129 64 0
-131 5 10 0
-132 13 0
-132 2 0
-133 132 0
-133 131 0
-134 4 0
-134 2 0
-135 -8 0
-135 9 0
-136 135 134 0
-137 136 0
-137 133 0
-138 -17 15 0
-139 16 8 0
-140 -8 -16 0
-141 140 0
-141 139 0
-142 141 138 0
-143 10 -24 0
-144 25 0
-144 -2 0
-145 144 0
-145 143 0
-146 145 142 0
-147 146 0
-147 137 0
-148 4 0
-148 7 0
-149 -19 0
-149 2 0
-150 149 148 0
-151 19 -2 0
-152 -4 -7 0
-153 152 151 0
-154 153 0
-154 150 0
-155 24 0
-155 -3 0
-156 -13 -22 0
-157 156 155 0
-158 157 154 0
-159 24 0
-159 16 0
-160 3 4 0
-161 160 0
-161 159 0
-162 11 0
-162 -11 0
-163 -23 0
-163 19 0
-164 163 162 0
-165 164 161 0
-166 165 158 0
-167 166 0
-167 147 0
-168 -25 0
-168 -16 0
-169 12 -23 0
-170 23 -12 0
-171 170 0
-171 169 0
-172 171 168 0
-173 -10 -11 0
-174 17 -12 0
-175 174 0
-175 173 0
-176 175 0
-176 172 0
-177 5 -15 0
-178 -17 24 0
-179 178 177 0
-180 -14 21 0
-181 -21 14 0
-182 181 0
-182 180 0
-183 -3 -6 0
-184 6 3 0
-185 184 0
-185 183 0
-186 185 182 0
-187 3 0
-187 6 0
-188 -6 0
-188 -3 0
-189 188 187 0
-190 14 0
-190 -21 0
-191 21 0
-191 -14 0
-192 191 190 0
-193 192 189 0
-194 193 0
-194 186 0
-195 194 0
-195 179 0
-196 195 176 0
-197 24 0
-197 -12 0
-198 -5 0
-198 -6 0
-199 198 0
-199 197 0
-200 -4 19 0
-201 20 10 0
-202 201 0
-202 200 0
-203 202 199 0
-204 -15 0
-204 -9 0
-205 3 -2 0
-206 205 0
-206 204 0
-207 -14 0
-207 -7 0
-208 -7 0
-208 -24 0
-209 208 207 0
-210 209 0
-210 206 0
-211 210 0
-211 203 0
-212 211 0
-212 196 0
-213 -24 12 0
-214 5 6 0
-215 214 213 0
-216 4 0
-216 -19 0
-217 -20 0
-217 -10 0
-218 217 216 0
-219 218 0
-219 215 0
-220 15 9 0
-221 -3 0
-221 2 0
-222 221 220 0
-223 14 7 0
-224 7 24 0
-225 224 0
-225 223 0
-226 225 222 0
-227 226 219 0
-228 25 16 0
-229 -12 0
-229 23 0
-230 -23 0
-230 12 0
-231 230 229 0
-232 231 0
-232 228 0
-233 10 0
-233 11 0
-234 -17 0
-234 12 0
-235 234 233 0
-236 235 232 0
-237 -5 0
-237 15 0
-238 17 0
-238 -24 0
-239 238 0
-239 237 0
-240 189 0
-240 192 0
-241 182 0
-241 185 0
-242 241 240 0
-243 242 239 0
-244 243 0
-244 236 0
-245 244 0
-245 227 0
-246 245 212 0
-247 246 167 0
247 0
130 0
-40 -36 0
-36 -40 0
-37 -41 0
-38 -42 0
-42 -38 0
-43 -33 0
-44 -34 0
-45 -35 0
-35 -45 0
-71 -69 0
-69 -71 0
-68 -72 0
-72 -68 0
-104 -100 0
-100 -104 0
-101 -105 0
-102 -106 0
-106 -102 0
-109 -97 0
-97 -109 0
-98 -110 0
-99 -111 0
-113 -117 0
-86 -118 0
-118 -86 0
-87 -119 0
-119 -87 0
-120 -88 0
-88 -120 0
-89 -121 0
-92 -124 0
-93 -125 0
-94 -126 0
-126 -94 0
-149 -151 0
-151 -149 0
-148 -152 0
-213 -197 0
-214 -198 0
-215 -199 0
-199 -215 0
-200 -216 0
-216 -200 0
-201 -217 0
-217 -201 0
-218 -202 0
-202 -218 0
-203 -219 0
-219 -203 0
-204 -220 0
-221 -205 0
-205 -221 0
-206 -222 0
-222 -206 0
-207 -223 0
-208 -224 0
-209 -225 0
-225 -209 0
-226 -210 0
-227 -211 0
-211 -227 0
-228 -168 0
-171 -231 0
-231 -171 0
-232 -172 0
-173 -233 0
-233 -173 0
-234 -174 0
-235 -175 0
-236 -176 0
-237 -177 0
-177 -237 0
-178 -238 0
-179 -239 0
-239 -179 0
-185 -189 0
-189 -185 0
-182 -192 0
-194 -242 0
-242 -194 0
-243 -195 0
-244 -196 0
