projected/problems_b25_r0_d7_m100_s666/b25_d7_r0_s666_076.smt2
(set-logic QF_UF)
(declare-fun A0 () Bool)
(declare-fun A1 () Bool)
(declare-fun A2 () Bool)
(declare-fun A3 () Bool)
(declare-fun A4 () Bool)
(declare-fun A5 () Bool)
(declare-fun A6 () Bool)
(declare-fun A7 () Bool)
(declare-fun A8 () Bool)
(declare-fun A9 () Bool)
(declare-fun A10 () Bool)
(declare-fun A11 () Bool)
(declare-fun A12 () Bool)
(declare-fun A13 () Bool)
(declare-fun A14 () Bool)
(declare-fun A15 () Bool)
(declare-fun A16 () Bool)
(declare-fun A17 () Bool)
(declare-fun A18 () Bool)
(declare-fun A19 () Bool)
(declare-fun A20 () Bool)
(declare-fun A21 () Bool)
(declare-fun A22 () Bool)
(declare-fun A23 () Bool)
(declare-fun A24 () Bool)
(assert (let ((.def_0 (not A12))) (let ((.def_1 (and A18 .def_0))) (let ((.def_2 (not .def_1))) (let ((.def_3 (not A21))) (let ((.def_4 (and A9 .def_3))) (let ((.def_5 (or .def_4 .def_2))) (let ((.def_6 (not .def_5))) (let ((.def_7 (not A6))) (let ((.def_8 (or A4 .def_7))) (let ((.def_9 (and A24 A2))) (let ((.def_10 (not .def_9))) (let ((.def_11 (and .def_10 .def_8))) (let ((.def_12 (not .def_11))) (let ((.def_13 (or .def_12 .def_6))) (let ((.def_14 (not .def_13))) (let ((.def_15 (and .def_3 A13))) (let ((.def_16 (not .def_15))) (let ((.def_17 (and A1 .def_3))) (let ((.def_18 (or .def_17 .def_16))) (let ((.def_19 (not .def_18))) (let ((.def_20 (and A12 A5))) (let ((.def_21 (or .def_0 A14))) (let ((.def_22 (or .def_21 .def_20))) (let ((.def_23 (not .def_22))) (let ((.def_24 (= .def_23 .def_19))) (let ((.def_25 (not .def_24))) (let ((.def_26 (and .def_25 .def_14))) (let ((.def_27 (not A5))) (let ((.def_28 (or A8 .def_27))) (let ((.def_29 (or A22 .def_27))) (let ((.def_30 (not .def_29))) (let ((.def_31 (or .def_30 .def_28))) (let ((.def_32 (not .def_31))) (let ((.def_33 (not A22))) (let ((.def_34 (and A0 .def_33))) (let ((.def_35 (not A23))) (let ((.def_36 (and A12 .def_35))) (let ((.def_37 (not .def_36))) (let ((.def_38 (and .def_37 .def_34))) (let ((.def_39 (not .def_38))) (let ((.def_40 (or .def_39 .def_32))) (let ((.def_41 (not A4))) (let ((.def_42 (or A21 .def_41))) (let ((.def_43 (not .def_42))) (let ((.def_44 (not A20))) (let ((.def_45 (or .def_44 A16))) (let ((.def_46 (or .def_45 .def_43))) (let ((.def_47 (not A0))) (let ((.def_48 (or .def_47 A1))) (let ((.def_49 (not .def_48))) (let ((.def_50 (and A17 A14))) (let ((.def_51 (not .def_50))) (let ((.def_52 (and .def_51 .def_49))) (let ((.def_53 (not .def_52))) (let ((.def_54 (or .def_53 .def_46))) (let ((.def_55 (or .def_54 .def_40))) (let ((.def_56 (and .def_55 .def_26))) (let ((.def_57 (not A9))) (let ((.def_58 (or .def_57 .def_27))) (let ((.def_59 (not A11))) (let ((.def_60 (and .def_59 A4))) (let ((.def_61 (not .def_60))) (let ((.def_62 (and .def_61 .def_58))) (let ((.def_63 (not .def_62))) (let ((.def_64 (not A1))) (let ((.def_65 (not A13))) (let ((.def_66 (and .def_65 .def_64))) (let ((.def_67 (not .def_66))) (let ((.def_68 (not A17))) (let ((.def_69 (or .def_68 .def_7))) (let ((.def_70 (not .def_69))) (let ((.def_71 (= .def_70 .def_67))) (let ((.def_72 (not .def_71))) (let ((.def_73 (and .def_72 .def_63))) (let ((.def_74 (not A8))) (let ((.def_75 (and .def_74 A15))) (let ((.def_76 (not .def_75))) (let ((.def_77 (not A7))) (let ((.def_78 (not A10))) (let ((.def_79 (= .def_78 .def_77))) (let ((.def_80 (or .def_79 .def_76))) (let ((.def_81 (or A7 A2))) (let ((.def_82 (not .def_81))) (let ((.def_83 (and A12 .def_57))) (let ((.def_84 (or .def_83 .def_82))) (let ((.def_85 (and .def_84 .def_80))) (let ((.def_86 (not .def_85))) (let ((.def_87 (and .def_86 .def_73))) (let ((.def_88 (not .def_87))) (let ((.def_89 (not A24))) (let ((.def_90 (or .def_3 .def_89))) (let ((.def_91 (not .def_90))) (let ((.def_92 (and .def_0 A11))) (let ((.def_93 (and .def_92 .def_91))) (let ((.def_94 (not .def_93))) (let ((.def_95 (= .def_47 A6))) (let ((.def_96 (not .def_95))) (let ((.def_97 (or A10 A15))) (let ((.def_98 (and .def_97 .def_96))) (let ((.def_99 (= .def_98 .def_94))) (let ((.def_100 (or .def_89 .def_41))) (let ((.def_101 (not .def_100))) (let ((.def_102 (or A8 A18))) (let ((.def_103 (not .def_102))) (let ((.def_104 (or .def_103 .def_101))) (let ((.def_105 (not .def_104))) (let ((.def_106 (and A24 .def_77))) (let ((.def_107 (= A9 .def_77))) (let ((.def_108 (or .def_107 .def_106))) (let ((.def_109 (and .def_108 .def_105))) (let ((.def_110 (not .def_109))) (let ((.def_111 (= .def_110 .def_99))) (let ((.def_112 (or .def_111 .def_88))) (let ((.def_113 (and .def_112 .def_56))) (let ((.def_114 (not .def_113))) (let ((.def_115 (and .def_41 .def_57))) (let ((.def_116 (not .def_115))) (let ((.def_117 (or .def_0 .def_64))) (let ((.def_118 (not .def_117))) (let ((.def_119 (and .def_118 .def_116))) (let ((.def_120 (not A3))) (let ((.def_121 (or .def_120 .def_64))) (let ((.def_122 (not .def_121))) (let ((.def_123 (and .def_77 A8))) (let ((.def_124 (or .def_123 .def_122))) (let ((.def_125 (and .def_124 .def_119))) (let ((.def_126 (not A16))) (let ((.def_127 (or .def_126 A14))) (let ((.def_128 (not A15))) (let ((.def_129 (= A7 .def_128))) (let ((.def_130 (or .def_129 .def_127))) (let ((.def_131 (not .def_130))) (let ((.def_132 (or A9 .def_35))) (let ((.def_133 (or .def_89 A1))) (let ((.def_134 (not .def_133))) (let ((.def_135 (and .def_134 .def_132))) (let ((.def_136 (not .def_135))) (let ((.def_137 (and .def_136 .def_131))) (let ((.def_138 (not .def_137))) (let ((.def_139 (and .def_138 .def_125))) (let ((.def_140 (not A18))) (let ((.def_141 (and .def_140 A1))) (let ((.def_142 (not .def_141))) (let ((.def_143 (and A3 A6))) (let ((.def_144 (= .def_143 .def_142))) (let ((.def_145 (not .def_144))) (let ((.def_146 (not A2))) (let ((.def_147 (and A23 .def_146))) (let ((.def_148 (not .def_147))) (let ((.def_149 (or .def_0 .def_3))) (let ((.def_150 (not .def_149))) (let ((.def_151 (and .def_150 .def_148))) (let ((.def_152 (and .def_151 .def_145))) (let ((.def_153 (not .def_152))) (let ((.def_154 (and A23 A15))) (let ((.def_155 (not .def_154))) (let ((.def_156 (or A2 A3))) (let ((.def_157 (not .def_156))) (let ((.def_158 (or .def_157 .def_155))) (let ((.def_159 (or .def_78 A10))) (let ((.def_160 (or A22 .def_140))) (let ((.def_161 (and .def_160 .def_159))) (let ((.def_162 (and .def_161 .def_158))) (let ((.def_163 (not .def_162))) (let ((.def_164 (or .def_163 .def_153))) (let ((.def_165 (and .def_164 .def_139))) (let ((.def_166 (or .def_35 A11))) (let ((.def_167 (or A4 A5))) (let ((.def_168 (or .def_167 .def_166))) (let ((.def_169 (not .def_168))) (let ((.def_170 (or .def_120 A18))) (let ((.def_171 (not .def_170))) (let ((.def_172 (or A19 A9))) (let ((.def_173 (not .def_172))) (let ((.def_174 (or .def_173 .def_171))) (let ((.def_175 (not .def_174))) (let ((.def_176 (or .def_175 .def_169))) (let ((.def_177 (not .def_176))) (let ((.def_178 (not A14))) (let ((.def_179 (and .def_178 .def_74))) (let ((.def_180 (and .def_146 A1))) (let ((.def_181 (not .def_180))) (let ((.def_182 (and .def_181 .def_179))) (let ((.def_183 (not .def_182))) (let ((.def_184 (and .def_65 .def_7))) (let ((.def_185 (and .def_7 .def_35))) (let ((.def_186 (or .def_185 .def_184))) (let ((.def_187 (not .def_186))) (let ((.def_188 (or .def_187 .def_183))) (let ((.def_189 (or .def_188 .def_177))) (let ((.def_190 (not .def_189))) (let ((.def_191 (or A24 A15))) (let ((.def_192 (= .def_33 .def_59))) (let ((.def_193 (not .def_192))) (let ((.def_194 (and .def_193 .def_191))) (let ((.def_195 (or .def_57 .def_78))) (let ((.def_196 (not .def_195))) (let ((.def_197 (and .def_126 A11))) (let ((.def_198 (or .def_197 .def_196))) (let ((.def_199 (or .def_198 .def_194))) (let ((.def_200 (and .def_41 A14))) (let ((.def_201 (not .def_200))) (let ((.def_202 (or .def_126 A23))) (let ((.def_203 (or .def_202 .def_201))) (let ((.def_204 (not .def_203))) (let ((.def_205 (= .def_27 A2))) (let ((.def_206 (not .def_205))) (let ((.def_207 (= A20 A13))) (let ((.def_208 (= .def_207 .def_206))) (let ((.def_209 (not .def_208))) (let ((.def_210 (or .def_209 .def_204))) (let ((.def_211 (and .def_210 .def_199))) (let ((.def_212 (= .def_211 .def_190))) (let ((.def_213 (not .def_212))) (let ((.def_214 (or .def_213 .def_165))) (let ((.def_215 (and .def_214 .def_114))) .def_215)))))))))))))))))))))))))))))))))))))))))))))))))))))))))))))))))))))))))))))))))))))))))))))))))))))))))))))))))))))))))))))))))))))))))))))))))))))))))))))))))))))))))))))))))))))))))))))))))))))))))))))))))))))))))
(check-sat)
